(declare-const tmp Int)
(declare-const term_to_project_onto0_integralized Int)
(declare-const term_to_project_onto2_integralized Int)
(declare-const term_to_project_onto_integralized Int)
(declare-const term_to_project_onto1_integralized Int)
(assert (exists
         ((|tmp'?1?1| Int) (|loop_entered'?2?2| Int) (|index2'?3?3| Int)
            (|index1'?4?4| Int) (tr?5?5 Int) (tr?6?6 Int) (phi_tmp?7?7 Int)
            (phi_tmp?8?8 Int) (loop_entered?9?9 Int) (index2?10?10 Int)
            (index1?11?11 Int))
         (and (<= (- loop_entered?9?9) 0) (<= (- index2?10?10) 0)
                (<= (- index1?11?11) 0)
                (<= (+ index1?11?11 (- index2?10?10) 1) 0)
                (or (and (<= (+ index1?11?11 -99999) 0)
                           (or (and (<= (+ (- index2?10?10) 100000) 0)
                                      (= (- phi_tmp?8?8) 0))
                                 (and (<= (+ index2?10?10 -99999) 0)
                                        (= (+ (- phi_tmp?8?8) 1) 0)))
                           (= (+ (- phi_tmp?7?7) phi_tmp?8?8) 0))
                      (and (<= (+ (- index1?11?11) 100000) 0)
                             (= (- phi_tmp?7?7) 0)))
                (or (<= (+ phi_tmp?7?7 1) 0) (<= (+ (- phi_tmp?7?7) 1) 0))
                (= (+ (- tr?5?5) tr?6?6) 0)
                (= (+ |tmp'?1?1| (- phi_tmp?7?7)) 0)
                (= (+ |loop_entered'?2?2| -1) 0)
                (= (+ |index2'?3?3| (- index2?10?10) 1) 0)
                (= (+ |index1'?4?4| (- index1?11?11) -1) 0)
                (= (+ term_to_project_onto2_integralized
                        (- (+ |index1'?4?4| (- index1?11?11)))) 0)
                (= (+ term_to_project_onto1_integralized
                        (- (+ |index2'?3?3| (- index2?10?10)))) 0)
                (= (+ term_to_project_onto0_integralized
                        (- (+ |loop_entered'?2?2| (- loop_entered?9?9)))) 0)
                (= (+ term_to_project_onto_integralized
                        (- (+ |tmp'?1?1| (- tmp)))) 0))))